20180528 205400.00 197300.00
20170901 170632.02 163944.78
20170822 170632.02 163683.42
20170606 142193.35 136330.25
20161019 142193.35 136330.25
20160923 141872.43 135845.98
20160804 141872.43 135791.53
20160602 136299.73 135791.53
20150928 113583.11 113159.61
